TYPE : Vertex Cover
DIMENSION: 36
EDGE_DATA_SECTION:
0 6
0 8
0 17
0 20
0 23
0 28
0 31
0 33
1 7
1 20
1 24
1 35
2 11
2 24
2 32
2 33
3 6
3 7
3 12
3 13
3 16
3 22
3 27
3 28
4 7
4 16
4 24
5 8
5 10
5 22
5 23
5 26
5 27
6 13
6 23
6 24
6 27
6 28
7 19
7 21
7 32
8 14
8 15
8 19
8 21
8 26
8 30
8 34
9 16
9 17
9 19
9 26
9 35
10 13
10 21
10 28
10 29
10 34
11 15
11 20
11 29
11 30
11 34
12 15
12 30
12 32
13 14
13 16
13 20
13 30
14 22
14 31
15 25
16 21
17 27
17 30
18 24
18 25
18 26
19 27
20 23
21 31
21 32
21 33
22 28
23 25
23 33
26 34
27 32
27 34
27 35
29 30
29 35
30 33
31 35
32 34
33 35
-1
VERTEX_DEGREE:
8.0 4.0 4.0 8.0 3.0 6.0 7.0 6.0 9.0 5.0 6.0 6.0 4.0 7.0 4.0 4.0 5.0 4.0 3.0 4.0 5.0 7.0 4.0 6.0 5.0 3.0 5.0 8.0 5.0 4.0 7.0 4.0 6.0 6.0 6.0 6.0
VERTEX_COVER:
6 7 8 10 11 12 13 16 17 19 20 22 23 24 25 26 27 28 30 31 32 33 35
EOF
